# Solution for model r5_t18_m2_8 Batch Number: 2
# Finished Task: 10 / 18
# Makespan: 414.0, Total Distance: 316.0, Total Time: 0.8395
# R O S F Batch
0 0 11 0.0 0.0 -1
1 1 9 0.0 0.0 -1
2 2 10 0.0 0.0 -1
3 3 -1 0.0 0.0 -1
4 4 -1 0.0 0.0 -1
5 1 15 334.0 369.0 1
6 -1 -1 -1.0 -1.0 0
7 0 19 329.0 356.0 1
8 -1 -1 -1.0 -1.0 1
9 1 20 206.0 238.0 1
10 2 -1 157.0 177.0 0
11 0 18 86.0 124.0 0
12 -1 -1 -1.0 -1.0 0
13 -1 -1 -1.0 -1.0 1
14 -1 -1 -1.0 -1.0 1
15 1 -1 387.0 414.0 1
16 -1 -1 -1.0 -1.0 0
17 -1 -1 -1.0 -1.0 0
18 0 22 198.0 220.0 1
19 0 -1 368.0 393.0 1
20 1 5 263.0 292.0 1
21 -1 -1 -1.0 -1.0 0
22 0 7 272.0 305.0 1
